c --- [ banner ] -------------------------------------------------------------
c 
c CaDiCaL Radically Simplified CDCL SAT Solver
c Copyright (c) 2016-2021 A. Biere, M. Fleury, N. Froleyks
c 
c Version 1.5.2 a5f15211db36c3956764e18194dd5bd63bf3b5e6
c g++ (GCC) 9.3.0 -Wall -Wextra -O3 -DNDEBUG
c Fri Oct 21 01:27:37 EDT 2022 Linux gra-login3 3.10.0-1160.66.1.el7.x86_64 x86_64
c 
c --- [ limit ] --------------------------------------------------------------
c 
c setting conflict limit to 200000 conflicts (due to '200000')
c 
c --- [ parsing input ] ------------------------------------------------------
c 
c reading DIMACS file from '33.cubes318.adj'
c opening file to read '33.cubes318.adj'
c found 'p cnf 6160 1595473' header
c parsed 1595473 clauses in 19.47 seconds process time
c closing file '33.cubes318.adj'
c after reading 1457566762 bytes 1390.0 MB
c 
c --- [ options ] ------------------------------------------------------------
c 
c all options are set to their default value
c 
c --- [ solving ] ------------------------------------------------------------
c 
c time measured in process time since initialization
c 
c  seconds    reductions  redundant   irredundant
c          MB     restarts       trail       variables
c            level   conflicts       glue         remaining
c 
c * 19.47 1365  0 0   0    0    0  0% 0 1595422 2428 39%
c { 21.11 1440  0 0   0    0    0  0% 0 1595422 2428 39%
c i 23.73 1484 437 0   6   56   43 26% 6 1595422 2427 39%
c i 23.76 1484 415 0   6   59   45 26% 7 1595422 2426 39%
c i 23.82 1485 408 0   6   60   45 26% 6 1595422 2417 39%
c i 24.06 1488 353 0   8   70   54 27% 9 1595422 2416 39%
c i 24.37 1491 293 0  12   90   71 27% 16 1595422 2415 39%
c i 24.63 1493 275 0  15   99   77 27% 17 1595422 2414 39%
c i 24.94 1494 245 0  19  119   91 27% 20 1595422 2413 39%
c i 25.59 1496 205 0  29  156  122 26% 25 1595422 2412 39%
c i 26.05 1497 189 0  34  173  137 27% 26 1595422 2411 39%
c i 26.05 1497 188 0  34  174  137 27% 26 1595422 2410 39%
c i 26.16 1498 183 0  35  181  143 27% 27 1595422 2409 39%
c i 26.32 1498 176 0  39  192  153 27% 27 1595422 2408 39%
c i 27.45 1504 162 0  53  242  195 27% 35 1595422 2407 39%
c i 27.70 1505 159 0  55  250  201 27% 35 1595422 2406 39%
c i 28.27 1507 150 0  62  282  224 27% 35 1595422 2404 39%
c i 28.41 1508 148 0  63  289  229 27% 35 1595422 2403 39%
c i 28.48 1508 144 0  63  300  239 27% 35 1595422 2402 39%
c - 32.10 1476 144 1  63  300  239 27% 35 318277 2402 39%
c 
c  seconds     reductions  redundant   irredundant
c          MB      restarts       trail       variables
c             level   conflicts       glue         remaining
c 
c i 32.47 1451 135 1  63  339  275 27% 33 318277 2401 39%
c i 32.52 1451 133 1  63  348  283 27% 33 318277 2400 39%
c i 32.54 1451 132 1  63  350  284 27% 33 318277 2399 39%
c i 32.57 1451 132 1  63  351  284 27% 33 318277 2398 39%
c i 32.57 1451 131 1  63  352  284 27% 33 318277 2397 39%
c i 32.68 1451 124 1  63  400  319 27% 33 318277 2396 39%
c i 32.68 1451 123 1  63  403  321 27% 33 318277 2395 39%
c i 32.71 1451 121 1  63  417  332 27% 33 318277 2394 39%
c i 32.74 1451 117 1  63  439  350 27% 32 318277 2393 39%
c i 32.79 1451 116 1  63  452  360 27% 32 318277 2392 39%
c i 32.80 1451 115 1  63  454  361 27% 32 318277 2391 39%
c i 32.81 1451 115 1  63  455  361 27% 32 318277 2390 39%
c i 32.81 1451 115 1  63  456  361 27% 32 318277 2389 39%
c i 32.81 1451 114 1  63  458  362 27% 32 318277 2388 39%
c i 32.81 1451 114 1  63  459  362 27% 32 318277 2387 39%
c i 32.83 1451 113 1  63  463  364 27% 32 318277 2386 39%
c i 32.83 1451 113 1  63  464  364 27% 32 318277 2385 39%
c i 32.86 1352 111 1  63  474  372 27% 31 318277 2384 39%
c i 33.05 1352 112 1  63  501  389 27% 32 318277 2383 39%
c i 33.23 1352 112 1  67  519  405 27% 33 318277 2382 39%
c 
c  seconds     reductions  redundant   irredundant
c          MB      restarts       trail       variables
c             level   conflicts       glue         remaining
c 
c i 33.27 1352 112 1  68  521  406 27% 33 318277 2381 39%
c i 33.27 1352 111 1  69  527  410 27% 32 318277 2379 39%
c i 33.32 1352 111 1  71  534  415 27% 33 318277 2378 39%
c i 33.33 1352 111 1  72  535  415 27% 33 318277 2377 39%
c i 33.33 1352 111 1  72  536  415 27% 32 318277 2376 39%
c i 33.35 1352 110 1  72  541  418 27% 32 318277 2374 39%
c i 33.37 1352 110 1  72  543  418 27% 32 318277 2372 39%
c i 33.53 1352 111 1  72  554  427 27% 33 318277 2371 38%
c i 33.56 1352 111 1  73  555  427 27% 33 318277 2370 38%
c i 33.57 1352 111 1  73  558  429 27% 32 318277 2369 38%
c i 33.59 1352 110 1  73  559  429 27% 32 318277 2368 38%
c i 33.60 1352 110 1  73  560  429 27% 32 318277 2367 38%
c i 33.66 1352 109 1  73  566  434 27% 32 318277 2366 38%
c i 33.86 1352 108 1  77  591  457 27% 34 318277 2365 38%
c i 33.87 1352 108 1  78  592  457 27% 33 318277 2364 38%
c i 33.93 1352 107 1  80  600  463 27% 33 318277 2363 38%
c i 34.13 1352 108 1  82  620  482 27% 33 318277 2362 38%
c i 34.58 1352 110 1  91  653  514 27% 34 318277 2361 38%
c i 34.68 1352 110 1  92  665  521 27% 34 318277 2360 38%
c i 34.79 1353 110 1  92  671  526 27% 34 318277 2359 38%
c 
c  seconds     reductions  redundant   irredundant
c          MB      restarts       trail       variables
c             level   conflicts       glue         remaining
c 
c i 34.80 1353 110 1  92  675  529 27% 34 318277 2358 38%
c i 34.81 1353 111 1  92  687  532 27% 33 318277 2357 38%
c i 34.92 1353 111 1  92  720  564 27% 33 318277 2356 38%
c i 34.95 1353 111 1  92  725  568 27% 34 318277 2355 38%
c i 35.05 1353 111 1  93  741  581 27% 34 318277 2354 38%
c i 35.17 1353 109 1  95  775  610 27% 34 318277 2353 38%
c i 35.21 1353 107 1  95  804  638 28% 33 318277 2352 38%
c i 35.25 1353 106 1  95  815  647 28% 33 318277 2351 38%
c i 35.31 1353 104 1  95  845  670 28% 33 318277 2350 38%
c i 35.63 1353 101 1  95  896  715 28% 33 318277 2349 38%
c i 35.67 1353 100 1  96  909  725 28% 33 318277 2348 38%
c i 36.21 1353 98 1 101  958  770 28% 33 318277 2347 38%
c i 36.29 1353 98 1 101  960  771 28% 33 318277 2346 38%
c i 36.43 1353 97 1 101  978  786 28% 33 318277 2345 38%
c i 36.65 1354 97 1 102  989  795 28% 33 318277 2344 38%
c i 36.76 1354 98 1 105 1001  804 28% 34 318277 2343 38%
c } 36.76 1354 98 1 105 1001  804 28% 34 318277 2343 38%
c [ 36.76 1354  0 1 105 1001  804  0% 0 318277 2343 38%
c O 36.76 1354  0 1 105 1002  804 11% 0 318277 2343 38%
c i 36.76 1354  0 1 105 1002  804 11% 0 318277 2295 37%
c 
c  seconds    reductions  redundant  irredundant
c          MB     restarts       trail      variables
c            level   conflicts       glue        remaining
c 
c i 36.92 1354  8 1 105 1010  811 24% 3 318277 2294 37%
c i 36.93 1354  7 1 105 1012  812 24% 2 318277 2293 37%
c i 36.95 1354  9 1 105 1014  813 25% 5 318277 2292 37%
c i 37.02 1354 20 1 105 1033  830 30% 13 318277 2291 37%
c - 38.00 1492 25 2 105 1202  852 31% 20 317310 2291 37%
c i 38.16 1492 24 2 105 1232  877 31% 20 317310 2290 37%
c i 38.16 1492 24 2 105 1233  877 31% 20 317310 2289 37%
c i 38.16 1492 24 2 105 1234  877 31% 20 317310 2288 37%
c i 38.24 1492 24 2 105 1263  899 31% 20 317310 2287 37%
c ] 38.29 1492 24 2 105 1288  921 31% 20 317310 2287 37%
c 1 38.29 1492 24 2 105 1288  921 31% 20 317310 2287 37%
c 
c --- [ writing output ] -----------------------------------------------------
c 
c writing simplified CNF to DIMACS file 'simp/33.cubes318.adj.simp1'
c * 38.29 1492 24 2 105 1288  921 31% 20 317310 2287 37%
c opening file to write 'simp/33.cubes318.adj.simp1'
c writing 'p cnf 6160 317298' header
c closing file 'simp/33.cubes318.adj.simp1'
c after writing 160637950 bytes 153.2 MB
c wrote 317298 clauses in 1.21 seconds process time
c 
c --- [ writing extension ] --------------------------------------------------
c 
c writing extension stack to 'simp/33.cubes318.adj.ext1'
c opening file to write 'simp/33.cubes318.adj.ext1'
c closing file 'simp/33.cubes318.adj.ext1'
c after writing 10718 bytes 0.0 MB
c wrote 729 witnesses in 0.00 seconds process time
c 
c --- [ result ] -------------------------------------------------------------
c 
s SATISFIABLE
c 
c --- [ run-time profiling ] -------------------------------------------------
c 
c process time taken by individual solving procedures
c (percentage relative to process time for solving)
c 
c        19.47  103.42% parse
c        18.82  100.00% search
c        15.64   83.09% unstable
c         1.64    8.74% lucky
c         1.54    8.17% stable
c         0.00    0.00% simplify
c   =================================
c        18.82   47.65% solve
c 
c last line shows process time for solving
c (percentage relative to total process time)
c 
c --- [ statistics ] ---------------------------------------------------------
c 
c chronological:               529        41.07 %  of conflicts
c conflicts:                  1288        68.42    per second
c decisions:                 20147      1070.29    per second
c fixed:                       729        11.83 %  of all variables
c learned:                    1239        96.20 %  per conflict
c learned_lits:             196822       100.00 %  learned literals
c minimized:                     0         0.00 %  learned literals
c shrunken:                  94852        48.19 %  learned literals
c minishrunken:              20952        10.65 %  learned literals
c propagations:             290866         0.02 M  per second
c reduced:                     111         8.62 %  per conflict
c rephased:                      1      1288.00    interval
c restarts:                    105        12.27    interval
c stabilizing:                   1        22.28 %  of conflicts
c subsumed:                    119         0.00 %  of all clauses
c 
c seconds are measured in process time for solving
c 
c --- [ resources ] ----------------------------------------------------------
c 
c total process time since initialization:        39.51    seconds
c total real time since initialization:           39.95    seconds
c maximum resident set size of process:         1508.30    MB
c 
c --- [ shutting down ] ------------------------------------------------------
c 
c exit 10
WARNING! DIMACS header mismatch: wrong number of variables.
============================[ Problem Statistics ]=============================
|                                                                             |
|  Number of variables:          6120                                         |
|  Number of clauses:          317298                                         |
|  Parse time:                   2.10 s                                       |
|  Simplification time:          0.05 s                                       |
|                                                                             |
============================[ Search Statistics ]====================================================
| Conflicts |          ORIGINAL         |          LEARNT          | Num Sols |      SUBGRAPHS      |
|           |    Vars  Clauses Literals |    Limit  Clauses Lit/Cl |          | Canonical Noncanon. |
=====================================================================================================
|       104 |    6027   317302 34415328 |     2000      102     99 |        0 |        28         4 |
|       301 |    6024   317349 34416063 |     2000      296    100 |        0 |        52        51 |
|       536 |    6021   317359 34416374 |     2000      528    108 |        0 |        58        61 |
|       927 |    6016   317413 34417295 |     2000      914    106 |        0 |        70       115 |
|      1450 |    6014   317430 34417536 |     2000     1435    112 |        0 |        82       132 |
|      2295 |    6006   317516 34418906 |     3589     1283     72 |        0 |       110       218 |
|      3521 |    6005   317603 34421226 |     3589     2508     93 |        0 |       133       305 |
|      5488 |    6004   317862 34427303 |     4994     2681     69 |        0 |       220       564 |
|      8221 |    5998   318033 34432409 |     6296     2917     47 |        0 |       266       735 |
|     12376 |    5997   318344 34440646 |     7552     3927     49 |        0 |       430      1046 |
|     18366 |    5994   318568 34445748 |     8775     6141     63 |        0 |       575      1270 |
|     27403 |    5992   318956 34453345 |    11200     5803     38 |        0 |       824      1658 |
|     40500 |    5992   319079 34456249 |    13606     7106     47 |        0 |       904      1781 |
|     60537 |    5991   319655 34468002 |    16009    12946     64 |        0 |      1218      2357 |
|     90857 |    5991   320783 34491905 |    19610    17467     64 |        0 |      1690      3485 |
|    136536 |    5991   322673 34523555 |    24410    20346     61 |        0 |      2555      5375 |
|    203798 |    5990   324251 34551118 |    30405    20603     56 |        0 |      3866      6953 |
|    305435 |    5988   327242 34608516 |    37618    22053     44 |        0 |      5728     10064 |
|    454900 |    5988   328918 34643294 |    46023    27323     50 |        0 |      7159     11740 |
|    679837 |    5988   332169 34725126 |    55621    51458     79 |        0 |      9400     14994 |
|   1023453 |    5988   343260 34990916 |    68815    56268     72 |        0 |     15410     26085 |
|   1533220 |    5987   354236 35261534 |    84423    72043     77 |        0 |     22275     37064 |
|   2291173 |    5986   364004 35528716 |   103626    82799     69 |        0 |     32903     46835 |
|   3434904 |    5979   372674 35793444 |   127624    76528     58 |        0 |     49973     68292 |
|   5153893 |    5964   395883 36504078 |   156422    98715     61 |        0 |     68241    103870 |
|   7745206 |    5939   424555 37361098 |   184468   171874     90 |        1 |     97994    170066 |
=====================================================================================================
Number of solutions   : 1
Canonical subgraphs   : 117496         (15 /sec)
          order  3    : 1              (200000 /sec)
          order  4    : 1              (500000 /sec)
          order  5    : 1              (200000 /sec)
          order  6    : 1              (55556 /sec)
          order  7    : 1              (8850 /sec)
          order  8    : 2              (1359 /sec)
          order  9    : 6              (315 /sec)
          order 10    : 16             (73 /sec)
          order 11    : 57             (18 /sec)
          order 12    : 233            (18 /sec)
          order 13    : 327            (28 /sec)
          order 14    : 4777           (20 /sec)
          order 15    : 33147          (17 /sec)
          order 16    : 38308          (15 /sec)
          order 17    : 28375          (13 /sec)
          order 18    : 9743           (14 /sec)
          order 19    : 1581           (14 /sec)
          order 20    : 472            (15 /sec)
          order 21    : 446            (14 /sec)
          order 22    : 1              (1 /sec)
Noncanonical subgraphs: 208700         (140 /sec)
          order  3    : 0              (-nan /sec)
          order  4    : 0              (-nan /sec)
          order  5    : 0              (-nan /sec)
          order  6    : 0              (-nan /sec)
          order  7    : 0              (-nan /sec)
          order  8    : 0              (-nan /sec)
          order  9    : 0              (-nan /sec)
          order 10    : 0              (-nan /sec)
          order 11    : 0              (-nan /sec)
          order 12    : 0              (-nan /sec)
          order 13    : 2307           (6599 /sec)
          order 14    : 10993          (1255 /sec)
          order 15    : 28373          (990 /sec)
          order 16    : 160598         (118 /sec)
          order 17    : 5913           (107 /sec)
          order 18    : 7              (6050 /sec)
          order 19    : 5              (25510 /sec)
          order 20    : 1              (4405 /sec)
          order 21    : 0              (-nan /sec)
Canonicity checking   : 7825.24 s
Noncanonicity checking: 1492.03 s
Total canonicity time : 9317.27 s
database reductions   : 171
restarts              : 14844
conflicts             : 9139012        (573 /sec)
decisions             : 11093949       (0.00 % random) (696 /sec)
propagations          : 1149708151     (72088 /sec)
conflict literals     : 1019505619     (55.58 % deleted)
actual reward         : 0.109859
Memory used           : 627.00 MB
CPU time              : 15948.8 s

UNSATISFIABLE
